words_hard_train/4922.qaiger
aag 39 14 0 1 25
2
4
8
10
14
18
20
24
32
34
42
44
56
58
79
6 2 5
12 8 11
16 13 15
22 18 21
26 23 24
28 16 26
30 7 28
36 33 34
38 19 20
40 37 39
46 43 44
48 3 4
50 47 49
52 40 50
54 42 45
60 57 58
62 55 61
64 52 62
66 30 64
68 56 59
70 32 35
72 9 10
74 71 73
76 69 74
78 66 76
i0 2 y1[5]
i1 1 x2[5]
i2 2 y1[1]
i3 1 x2[1]
i4 1 x2[0]
i5 2 y1[3]
i6 1 x2[3]
i7 1 x2[2]
i8 2 y1[7]
i9 1 x2[7]
i10 2 y1[6]
i11 1 x2[6]
i12 2 y1[4]
i13 1 x2[4]
o0 bool[0]
c
simplified
  !=
    xor
      1
      1 x2
    or
      unary minus
        -5
      2 y1
