words_hard_train/4922.qaiger.qdimacs
p cnf 39 76
a 2 5 7 10 12 17 22 29 0
e 1 3 4 6 8 9 11 13 14 15 16 18 19 20 21 23 24 25 26 27 28 30 31 32 33 34 35 36 37 38 39 0
-1 2 3 0
1 -3 0
-2 -3 0
-4 5 6 0
4 -6 0
-5 -6 0
6 7 8 0
-6 -8 0
-7 -8 0
-9 10 11 0
9 -11 0
-10 -11 0
11 -12 13 0
-11 -13 0
12 -13 0
-8 -13 14 0
8 -14 0
13 -14 0
3 -14 15 0
-3 -15 0
14 -15 0
16 -17 18 0
-16 -18 0
17 -18 0
9 -10 19 0
-9 -19 0
10 -19 0
18 19 20 0
-18 -20 0
-19 -20 0
21 -22 23 0
-21 -23 0
22 -23 0
1 -2 24 0
-1 -24 0
2 -24 0
23 24 25 0
-23 -25 0
-24 -25 0
-20 -25 26 0
20 -26 0
25 -26 0
-21 22 27 0
21 -27 0
-22 -27 0
28 -29 30 0
-28 -30 0
29 -30 0
27 30 31 0
-27 -31 0
-30 -31 0
-26 -31 32 0
26 -32 0
31 -32 0
-15 -32 33 0
15 -33 0
32 -33 0
-28 29 34 0
28 -34 0
-29 -34 0
-16 17 35 0
16 -35 0
-17 -35 0
4 -5 36 0
-4 -36 0
5 -36 0
35 36 37 0
-35 -37 0
-36 -37 0
34 -37 38 0
-34 -38 0
37 -38 0
-33 -38 39 0
33 -39 0
38 -39 0
-39 0
